1408
44 48 90 69 65 67 41 45 92 42 21 30 2 33 71 26 57 58 12 35 5 51 77 87 31 81 50 15 54 99 11 86 37 49 56 25 66 95 16 93 17 28 80 63 79 14 64 1 22 60 13 91 52 8 84 78 73 29 19 55 4 43 72 24 61 40 83 36 46 23 85 6 9 20 39 74 7 10 88 98 96 97 70 68 38 94 34 59 27 47 82 53 62 76 18 3 32 75 89 
